NAME /Users/henri/Research/solvers/instances/idol-instances/robust/collection/spp_dkp_Lefebvre_et_al_2026/shortest_path_7_3/uncertainty_sets/discrete_knapsack
ROWS
 N  OBJ
 L  primal_lower
COLUMNS
    MARKER    'MARKER'                 'INTORG'
    y[0,1]     OBJ        0
    y[0,1]     primal_lower -5
    y[0,2]     OBJ        0
    y[0,2]     primal_lower -2.78
    y[0,3]     OBJ        0
    y[0,3]     primal_lower -1.42
    y[0,4]     OBJ        0
    y[0,4]     primal_lower -0.39
    y[0,5]     OBJ        0
    y[0,5]     primal_lower -2.25
    y[0,6]     OBJ        0
    y[0,6]     primal_lower -2.39
    y[1,0]     OBJ        0
    y[1,0]     primal_lower -0.25
    y[1,2]     OBJ        0
    y[1,2]     primal_lower -0.83
    y[1,3]     OBJ        0
    y[1,3]     primal_lower -0.59
    y[1,6]     OBJ        0
    y[1,6]     primal_lower -3.17
    y[2,0]     OBJ        0
    y[2,0]     primal_lower -4.33
    y[2,1]     OBJ        0
    y[2,1]     primal_lower -3.29
    y[2,3]     OBJ        0
    y[2,3]     primal_lower -5.01
    y[2,4]     OBJ        0
    y[2,4]     primal_lower -2.38
    y[2,5]     OBJ        0
    y[2,5]     primal_lower -3.13
    y[2,6]     OBJ        0
    y[2,6]     primal_lower -1.43
    y[3,0]     OBJ        0
    y[3,0]     primal_lower -4.94
    y[3,1]     OBJ        0
    y[3,1]     primal_lower -3.4
    y[3,2]     OBJ        0
    y[3,2]     primal_lower -2.23
    y[3,5]     OBJ        0
    y[3,5]     primal_lower -1.47
    y[3,6]     OBJ        0
    y[3,6]     primal_lower -2.58
    y[4,0]     OBJ        0
    y[4,0]     primal_lower -0.57
    y[4,2]     OBJ        0
    y[4,2]     primal_lower -1.15
    y[4,5]     OBJ        0
    y[4,5]     primal_lower -2.42
    y[5,0]     OBJ        0
    y[5,0]     primal_lower -1.23
    y[5,2]     OBJ        0
    y[5,2]     primal_lower -1.96
    y[5,3]     OBJ        0
    y[5,3]     primal_lower -4.14
    y[5,4]     OBJ        0
    y[5,4]     primal_lower -0.38
    y[5,6]     OBJ        0
    y[5,6]     primal_lower -4.67
    y[6,0]     OBJ        0
    y[6,0]     primal_lower -1.14
    y[6,1]     OBJ        0
    y[6,1]     primal_lower -3.57
    y[6,2]     OBJ        0
    y[6,2]     primal_lower -0.56
    y[6,3]     OBJ        0
    y[6,3]     primal_lower -3.04
    y[6,5]     OBJ        0
    y[6,5]     primal_lower -2.06
    u[0,1]     OBJ        0
    u[0,1]     primal_lower 95
    u[0,2]     OBJ        0
    u[0,2]     primal_lower 88
    u[0,3]     OBJ        0
    u[0,3]     primal_lower 12
    u[0,4]     OBJ        0
    u[0,4]     primal_lower 76
    u[0,5]     OBJ        0
    u[0,5]     primal_lower 14
    u[0,6]     OBJ        0
    u[0,6]     primal_lower 58
    u[1,0]     OBJ        0
    u[1,0]     primal_lower 23
    u[1,2]     OBJ        0
    u[1,2]     primal_lower 38
    u[1,3]     OBJ        0
    u[1,3]     primal_lower 32
    u[1,6]     OBJ        0
    u[1,6]     primal_lower 19
    u[2,0]     OBJ        0
    u[2,0]     primal_lower 93
    u[2,1]     OBJ        0
    u[2,1]     primal_lower 67
    u[2,3]     OBJ        0
    u[2,3]     primal_lower 57
    u[2,4]     OBJ        0
    u[2,4]     primal_lower 55
    u[2,5]     OBJ        0
    u[2,5]     primal_lower 67
    u[2,6]     OBJ        0
    u[2,6]     primal_lower 49
    u[3,0]     OBJ        0
    u[3,0]     primal_lower 41
    u[3,1]     OBJ        0
    u[3,1]     primal_lower 8
    u[3,2]     OBJ        0
    u[3,2]     primal_lower 58
    u[3,5]     OBJ        0
    u[3,5]     primal_lower 96
    u[3,6]     OBJ        0
    u[3,6]     primal_lower 3
    u[4,0]     OBJ        0
    u[4,0]     primal_lower 73
    u[4,2]     OBJ        0
    u[4,2]     primal_lower 91
    u[4,5]     OBJ        0
    u[4,5]     primal_lower 73
    u[5,0]     OBJ        0
    u[5,0]     primal_lower 48
    u[5,2]     OBJ        0
    u[5,2]     primal_lower 45
    u[5,3]     OBJ        0
    u[5,3]     primal_lower 88
    u[5,4]     OBJ        0
    u[5,4]     primal_lower 92
    u[5,6]     OBJ        0
    u[5,6]     primal_lower 56
    u[6,0]     OBJ        0
    u[6,0]     primal_lower 61
    u[6,1]     OBJ        0
    u[6,1]     primal_lower 48
    u[6,2]     OBJ        0
    u[6,2]     primal_lower 82
    u[6,3]     OBJ        0
    u[6,3]     primal_lower 41
    u[6,5]     OBJ        0
    u[6,5]     primal_lower 48
    MARKER    'MARKER'                 'INTEND'
RHS
    RHS       primal_lower 172
BOUNDS
 LI BND       y[0,1]     0
 UI BND       y[0,1]     1
 LI BND       y[0,2]     0
 UI BND       y[0,2]     1
 LI BND       y[0,3]     0
 UI BND       y[0,3]     1
 LI BND       y[0,4]     0
 UI BND       y[0,4]     1
 LI BND       y[0,5]     0
 UI BND       y[0,5]     1
 LI BND       y[0,6]     0
 UI BND       y[0,6]     1
 LI BND       y[1,0]     0
 UI BND       y[1,0]     1
 LI BND       y[1,2]     0
 UI BND       y[1,2]     1
 LI BND       y[1,3]     0
 UI BND       y[1,3]     1
 LI BND       y[1,6]     0
 UI BND       y[1,6]     1
 LI BND       y[2,0]     0
 UI BND       y[2,0]     1
 LI BND       y[2,1]     0
 UI BND       y[2,1]     1
 LI BND       y[2,3]     0
 UI BND       y[2,3]     1
 LI BND       y[2,4]     0
 UI BND       y[2,4]     1
 LI BND       y[2,5]     0
 UI BND       y[2,5]     1
 LI BND       y[2,6]     0
 UI BND       y[2,6]     1
 LI BND       y[3,0]     0
 UI BND       y[3,0]     1
 LI BND       y[3,1]     0
 UI BND       y[3,1]     1
 LI BND       y[3,2]     0
 UI BND       y[3,2]     1
 LI BND       y[3,5]     0
 UI BND       y[3,5]     1
 LI BND       y[3,6]     0
 UI BND       y[3,6]     1
 LI BND       y[4,0]     0
 UI BND       y[4,0]     1
 LI BND       y[4,2]     0
 UI BND       y[4,2]     1
 LI BND       y[4,5]     0
 UI BND       y[4,5]     1
 LI BND       y[5,0]     0
 UI BND       y[5,0]     1
 LI BND       y[5,2]     0
 UI BND       y[5,2]     1
 LI BND       y[5,3]     0
 UI BND       y[5,3]     1
 LI BND       y[5,4]     0
 UI BND       y[5,4]     1
 LI BND       y[5,6]     0
 UI BND       y[5,6]     1
 LI BND       y[6,0]     0
 UI BND       y[6,0]     1
 LI BND       y[6,1]     0
 UI BND       y[6,1]     1
 LI BND       y[6,2]     0
 UI BND       y[6,2]     1
 LI BND       y[6,3]     0
 UI BND       y[6,3]     1
 LI BND       y[6,5]     0
 UI BND       y[6,5]     1
 LI BND       u[0,1]     0
 UI BND       u[0,1]     1
 LI BND       u[0,2]     0
 UI BND       u[0,2]     1
 LI BND       u[0,3]     0
 UI BND       u[0,3]     1
 LI BND       u[0,4]     0
 UI BND       u[0,4]     1
 LI BND       u[0,5]     0
 UI BND       u[0,5]     1
 LI BND       u[0,6]     0
 UI BND       u[0,6]     1
 LI BND       u[1,0]     0
 UI BND       u[1,0]     1
 LI BND       u[1,2]     0
 UI BND       u[1,2]     1
 LI BND       u[1,3]     0
 UI BND       u[1,3]     1
 LI BND       u[1,6]     0
 UI BND       u[1,6]     1
 LI BND       u[2,0]     0
 UI BND       u[2,0]     1
 LI BND       u[2,1]     0
 UI BND       u[2,1]     1
 LI BND       u[2,3]     0
 UI BND       u[2,3]     1
 LI BND       u[2,4]     0
 UI BND       u[2,4]     1
 LI BND       u[2,5]     0
 UI BND       u[2,5]     1
 LI BND       u[2,6]     0
 UI BND       u[2,6]     1
 LI BND       u[3,0]     0
 UI BND       u[3,0]     1
 LI BND       u[3,1]     0
 UI BND       u[3,1]     1
 LI BND       u[3,2]     0
 UI BND       u[3,2]     1
 LI BND       u[3,5]     0
 UI BND       u[3,5]     1
 LI BND       u[3,6]     0
 UI BND       u[3,6]     1
 LI BND       u[4,0]     0
 UI BND       u[4,0]     1
 LI BND       u[4,2]     0
 UI BND       u[4,2]     1
 LI BND       u[4,5]     0
 UI BND       u[4,5]     1
 LI BND       u[5,0]     0
 UI BND       u[5,0]     1
 LI BND       u[5,2]     0
 UI BND       u[5,2]     1
 LI BND       u[5,3]     0
 UI BND       u[5,3]     1
 LI BND       u[5,4]     0
 UI BND       u[5,4]     1
 LI BND       u[5,6]     0
 UI BND       u[5,6]     1
 LI BND       u[6,0]     0
 UI BND       u[6,0]     1
 LI BND       u[6,1]     0
 UI BND       u[6,1]     1
 LI BND       u[6,2]     0
 UI BND       u[6,2]     1
 LI BND       u[6,3]     0
 UI BND       u[6,3]     1
 LI BND       u[6,5]     0
 UI BND       u[6,5]     1
ENDATA
